objective value:                                   40
lambda[0,17]*                                       3 	(obj:0)
lambda[0,34]*                                       1 	(obj:8)
lambda[1,35]*                                       5 	(obj:0)
lambda[1,37]*                                       5 	(obj:0)
lambda[0,40]*                                       1 	(obj:8)
lambda[0,44]*                                       2 	(obj:0)
lambda[0,45]*                                       3 	(obj:8)
